/* IPET system */
max: 157 e4_6_camlAppend__append_1010 + 157 e2_6_camlAppend__append_1010 + 113 e1_3_camlAppend__append_1010 + 102 e1_2_camlAppend__append_1010 + 135 e3_5_camlAppend__append_1010;
x6_camlAppend__append_1010 = e2_6_camlAppend__append_1010 + e4_6_camlAppend__append_1010;	/* structural input constraint*/
x5_camlAppend__append_1010 = e5_4_camlAppend__append_1010;	/* structural output constraint*/
x5_camlAppend__append_1010 = e3_5_camlAppend__append_1010;	/* structural input constraint*/
x4_camlAppend__append_1010 = e4_6_camlAppend__append_1010;	/* structural output constraint*/
x4_camlAppend__append_1010 = e5_4_camlAppend__append_1010;	/* structural input constraint*/
x3_camlAppend__append_1010 = e3_5_camlAppend__append_1010;	/* structural output constraint*/
x3_camlAppend__append_1010 = e1_3_camlAppend__append_1010;	/* structural input constraint*/
x2_camlAppend__append_1010 = e2_6_camlAppend__append_1010;	/* structural output constraint*/
x2_camlAppend__append_1010 = e1_2_camlAppend__append_1010;	/* structural input constraint*/
x1_camlAppend__append_1010 = e1_2_camlAppend__append_1010 + e1_3_camlAppend__append_1010;	/* structural output constraint*/
x1_camlAppend__append_1010 = e0_1_camlAppend__append_1010;	/* structural input constraint*/
x0_camlAppend__append_1010 = e0_1_camlAppend__append_1010;	/* structural output constraint*/
x0_camlAppend__append_1010 = 1;	/* program entry constraint*/
int x1_camlAppend__append_1010;
int e1_3_camlAppend__append_1010;
int x0_camlAppend__append_1010;
int e0_1_camlAppend__append_1010;
int e1_2_camlAppend__append_1010;
int x2_camlAppend__append_1010;
int e2_6_camlAppend__append_1010;
int x3_camlAppend__append_1010;
int e3_5_camlAppend__append_1010;
int x4_camlAppend__append_1010;
int e4_6_camlAppend__append_1010;
int x5_camlAppend__append_1010;
int e5_4_camlAppend__append_1010;
int x6_camlAppend__append_1010;
